2 ANNO/Ricerca operativa/Esercizi_AMPL/10/dieta.dat
set I := r1 r2 r3 r4;
set J := x1,x2,x3,x4,x5,x6,x7;

param b:=
r1 600
r2 400
r3 10
r4 10;

param c:=
x1 0.5
x2 0.4
x3 0.7
x4 0
x5 0
x6 0
x7 0;

param a:
	x1	x2	x3	x4	x5	x6	x7=
r1	452	64	365	1	0	0	0
r2	452	64	365	0	1	0	0
r3	8	0	23	0	0	-1	0
r4	0	47	18	0	0	0	-1;